c File: instances/22_0.40_2.col
c
c Description: Random graph of size 22 vertices and P(0.39999999999999997) of edges between any two vertices.
p col 22 231
e 1 2
e 1 3
e 1 4
e 1 5
e 1 9
e 1 10
e 1 13
e 1 17
e 1 21
e 2 3
e 2 4
e 2 6
e 2 8
e 2 9
e 2 11
e 2 12
e 2 14
e 2 15
e 2 16
e 2 17
e 2 18
e 2 19
e 3 4
e 3 5
e 3 7
e 3 14
e 3 15
e 3 17
e 3 20
e 4 6
e 4 7
e 4 12
e 4 18
e 5 6
e 5 8
e 5 12
e 5 13
e 5 16
e 5 18
e 5 19
e 6 7
e 6 8
e 6 12
e 6 15
e 6 16
e 6 17
e 6 19
e 6 21
e 7 15
e 7 16
e 7 17
e 8 14
e 8 15
e 8 17
e 9 12
e 9 13
e 9 14
e 9 15
e 9 18
e 9 20
e 9 21
e 10 13
e 10 14
e 10 17
e 10 18
e 10 20
e 10 22
e 11 12
e 11 15
e 11 18
e 11 20
e 11 21
e 12 13
e 12 14
e 12 17
e 12 20
e 13 14
e 13 15
e 13 17
e 13 21
e 14 17
e 14 18
e 15 16
e 15 20
e 15 21
e 15 22
e 16 17
e 16 19
e 16 21
e 17 21
e 18 19
e 18 22
e 19 21
e 20 22
e 21 22